100 100093

 798 682
572 373
987 734
590 406
56 628
51 770
884 549
842 540
346 89
619 411
490 546
968 462
950 901
984 907
867 822
910 376
218 718
832 396
709 233
963 343
572 71
86 332
598 461
687 956
221 314
395 903
599 229
375 191
375 519
134 673
941 45
751 222
2 456
766 332
740 713
10 512
370 161
607 895
453 293
778 732
426 780
154 964
977 499
243 616
718 335
144 679
330 464
443 438
193 856
450 51
158 882
560 853
664 507
63 491
872 362
186 995
226 112
662 591
469 682
500 935
129 781
806 644
618 117
136 374
374 139
811 882
569 750
109 758
373 653
243 508
518 150
844 330
437 137
434 725
906 161
577 703
567 693
262 460
608 136
576 315
397 321
991 701
882 114
750 830
538 762
463 187
185 720
306 669
774 749
454 189
883 158
148 237
509 366
647 794
517 738
890 926
990 59
116 12
130 700
131 280
